result&benchmarks/Data/Ex1/verify/Output/simple_2-2_process_dc_iter1Output/Counterexample.2.smt2
(set-info :source |printed by MathSAT|)
(declare-fun |main::local_14@2| () (_ BitVec 32))
(assert (let ((.def_17 (bvult |main::local_14@2| (_ bv268435456 32))))(let ((.def_12 (bvult |main::local_14@2| (_ bv268435455 32))))(let ((.def_15 (not .def_12)))(let ((.def_19 (and .def_15 .def_17))).def_19)))))