result&benchmarks/Data/Ex1/verify/Output/simple_2-2_process_dc_iter1Output/Counterexample.2.txt
none:	N37 -{INIT GLOBAL VARS}-> N59
/usr/include/assert.h, lines 69-71:	N59 -{void __assert_fail(const char *__assertion, const char *__file, unsigned int __line, const char *__function);}-> N60
/usr/include/assert.h, lines 74-76:	N60 -{void __assert_perror_fail(int __errnum, const char *__file, unsigned int __line, const char *__function);}-> N61
/usr/include/assert.h, lines 81-82:	N61 -{void __assert(const char *__assertion, const char *__file, int __line);}-> N62
/usr/include/x86_64-linux-gnu/bits/types.h, line 31:	N62 -{typedef unsigned char __u_char;}-> N63
/usr/include/x86_64-linux-gnu/bits/types.h, line 32:	N63 -{typedef unsigned short int __u_short;}-> N64
/usr/include/x86_64-linux-gnu/bits/types.h, line 33:	N64 -{typedef unsigned int __u_int;}-> N65
/usr/include/x86_64-linux-gnu/bits/types.h, line 34:	N65 -{typedef unsigned long int __u_long;}-> N66
/usr/include/x86_64-linux-gnu/bits/types.h, line 37:	N66 -{typedef signed char __int8_t;}-> N67
/usr/include/x86_64-linux-gnu/bits/types.h, line 38:	N67 -{typedef unsigned char __uint8_t;}-> N68
/usr/include/x86_64-linux-gnu/bits/types.h, line 39:	N68 -{typedef signed short int __int16_t;}-> N69
/usr/include/x86_64-linux-gnu/bits/types.h, line 40:	N69 -{typedef unsigned short int __uint16_t;}-> N70
/usr/include/x86_64-linux-gnu/bits/types.h, line 41:	N70 -{typedef signed int __int32_t;}-> N71
/usr/include/x86_64-linux-gnu/bits/types.h, line 42:	N71 -{typedef unsigned int __uint32_t;}-> N72
/usr/include/x86_64-linux-gnu/bits/types.h, line 44:	N72 -{typedef signed long int __int64_t;}-> N73
/usr/include/x86_64-linux-gnu/bits/types.h, line 45:	N73 -{typedef unsigned long int __uint64_t;}-> N74
/usr/include/x86_64-linux-gnu/bits/types.h, line 52:	N74 -{typedef __int8_t __int_least8_t;}-> N75
/usr/include/x86_64-linux-gnu/bits/types.h, line 53:	N75 -{typedef __uint8_t __uint_least8_t;}-> N76
/usr/include/x86_64-linux-gnu/bits/types.h, line 54:	N76 -{typedef __int16_t __int_least16_t;}-> N77
/usr/include/x86_64-linux-gnu/bits/types.h, line 55:	N77 -{typedef __uint16_t __uint_least16_t;}-> N78
/usr/include/x86_64-linux-gnu/bits/types.h, line 56:	N78 -{typedef __int32_t __int_least32_t;}-> N79
/usr/include/x86_64-linux-gnu/bits/types.h, line 57:	N79 -{typedef __uint32_t __uint_least32_t;}-> N80
/usr/include/x86_64-linux-gnu/bits/types.h, line 58:	N80 -{typedef __int64_t __int_least64_t;}-> N81
/usr/include/x86_64-linux-gnu/bits/types.h, line 59:	N81 -{typedef __uint64_t __uint_least64_t;}-> N82
/usr/include/x86_64-linux-gnu/bits/types.h, line 63:	N82 -{typedef long int __quad_t;}-> N83
/usr/include/x86_64-linux-gnu/bits/types.h, line 64:	N83 -{typedef unsigned long int __u_quad_t;}-> N84
/usr/include/x86_64-linux-gnu/bits/types.h, line 72:	N84 -{typedef long int __intmax_t;}-> N85
/usr/include/x86_64-linux-gnu/bits/types.h, line 73:	N85 -{typedef unsigned long int __uintmax_t;}-> N86
/usr/include/x86_64-linux-gnu/bits/types.h, line 145:	N86 -{typedef unsigned long int __dev_t;}-> N87
/usr/include/x86_64-linux-gnu/bits/types.h, line 146:	N87 -{typedef unsigned int __uid_t;}-> N88
/usr/include/x86_64-linux-gnu/bits/types.h, line 147:	N88 -{typedef unsigned int __gid_t;}-> N89
/usr/include/x86_64-linux-gnu/bits/types.h, line 148:	N89 -{typedef unsigned long int __ino_t;}-> N90
/usr/include/x86_64-linux-gnu/bits/types.h, line 149:	N90 -{typedef unsigned long int __ino64_t;}-> N91
/usr/include/x86_64-linux-gnu/bits/types.h, line 150:	N91 -{typedef unsigned int __mode_t;}-> N92
/usr/include/x86_64-linux-gnu/bits/types.h, line 151:	N92 -{typedef unsigned long int __nlink_t;}-> N93
/usr/include/x86_64-linux-gnu/bits/types.h, line 152:	N93 -{typedef long int __off_t;}-> N94
/usr/include/x86_64-linux-gnu/bits/types.h, line 153:	N94 -{typedef long int __off64_t;}-> N95
/usr/include/x86_64-linux-gnu/bits/types.h, line 154:	N95 -{typedef int __pid_t;}-> N96
/usr/include/x86_64-linux-gnu/bits/types.h, line 155:	N96 -{struct __anon_type___fsid_t {   int __val[2]; } ;}-> N97
/usr/include/x86_64-linux-gnu/bits/types.h, line 155:	N97 -{typedef struct __anon_type___fsid_t __fsid_t;}-> N98
/usr/include/x86_64-linux-gnu/bits/types.h, line 156:	N98 -{typedef long int __clock_t;}-> N99
/usr/include/x86_64-linux-gnu/bits/types.h, line 157:	N99 -{typedef unsigned long int __rlim_t;}-> N100
/usr/include/x86_64-linux-gnu/bits/types.h, line 158:	N100 -{typedef unsigned long int __rlim64_t;}-> N101
/usr/include/x86_64-linux-gnu/bits/types.h, line 159:	N101 -{typedef unsigned int __id_t;}-> N102
/usr/include/x86_64-linux-gnu/bits/types.h, line 160:	N102 -{typedef long int __time_t;}-> N103
/usr/include/x86_64-linux-gnu/bits/types.h, line 161:	N103 -{typedef unsigned int __useconds_t;}-> N104
/usr/include/x86_64-linux-gnu/bits/types.h, line 162:	N104 -{typedef long int __suseconds_t;}-> N105
/usr/include/x86_64-linux-gnu/bits/types.h, line 163:	N105 -{typedef long int __suseconds64_t;}-> N106
/usr/include/x86_64-linux-gnu/bits/types.h, line 165:	N106 -{typedef int __daddr_t;}-> N107
/usr/include/x86_64-linux-gnu/bits/types.h, line 166:	N107 -{typedef int __key_t;}-> N108
/usr/include/x86_64-linux-gnu/bits/types.h, line 169:	N108 -{typedef int __clockid_t;}-> N109
/usr/include/x86_64-linux-gnu/bits/types.h, line 172:	N109 -{typedef void *__timer_t;}-> N110
/usr/include/x86_64-linux-gnu/bits/types.h, line 175:	N110 -{typedef long int __blksize_t;}-> N111
/usr/include/x86_64-linux-gnu/bits/types.h, line 180:	N111 -{typedef long int __blkcnt_t;}-> N112
/usr/include/x86_64-linux-gnu/bits/types.h, line 181:	N112 -{typedef long int __blkcnt64_t;}-> N113
/usr/include/x86_64-linux-gnu/bits/types.h, line 184:	N113 -{typedef unsigned long int __fsblkcnt_t;}-> N114
/usr/include/x86_64-linux-gnu/bits/types.h, line 185:	N114 -{typedef unsigned long int __fsblkcnt64_t;}-> N115
/usr/include/x86_64-linux-gnu/bits/types.h, line 188:	N115 -{typedef unsigned long int __fsfilcnt_t;}-> N116
/usr/include/x86_64-linux-gnu/bits/types.h, line 189:	N116 -{typedef unsigned long int __fsfilcnt64_t;}-> N117
/usr/include/x86_64-linux-gnu/bits/types.h, line 192:	N117 -{typedef long int __fsword_t;}-> N118
/usr/include/x86_64-linux-gnu/bits/types.h, line 194:	N118 -{typedef long int __ssize_t;}-> N119
/usr/include/x86_64-linux-gnu/bits/types.h, line 197:	N119 -{typedef long int __syscall_slong_t;}-> N120
/usr/include/x86_64-linux-gnu/bits/types.h, line 199:	N120 -{typedef unsigned long int __syscall_ulong_t;}-> N121
/usr/include/x86_64-linux-gnu/bits/types.h, line 203:	N121 -{typedef __off64_t __loff_t;}-> N122
/usr/include/x86_64-linux-gnu/bits/types.h, line 204:	N122 -{typedef char *__caddr_t;}-> N123
/usr/include/x86_64-linux-gnu/bits/types.h, line 207:	N123 -{typedef long int __intptr_t;}-> N124
/usr/include/x86_64-linux-gnu/bits/types.h, line 210:	N124 -{typedef unsigned int __socklen_t;}-> N125
/usr/include/x86_64-linux-gnu/bits/types.h, line 215:	N125 -{typedef int __sig_atomic_t;}-> N126
/usr/include/x86_64-linux-gnu/bits/stdint-intn.h, line 24:	N126 -{typedef __int8_t int8_t;}-> N127
/usr/include/x86_64-linux-gnu/bits/stdint-intn.h, line 25:	N127 -{typedef __int16_t int16_t;}-> N128
/usr/include/x86_64-linux-gnu/bits/stdint-intn.h, line 26:	N128 -{typedef __int32_t int32_t;}-> N129
/usr/include/x86_64-linux-gnu/bits/stdint-intn.h, line 27:	N129 -{typedef __int64_t int64_t;}-> N130
/usr/include/x86_64-linux-gnu/bits/stdint-uintn.h, line 24:	N130 -{typedef __uint8_t uint8_t;}-> N131
/usr/include/x86_64-linux-gnu/bits/stdint-uintn.h, line 25:	N131 -{typedef __uint16_t uint16_t;}-> N132
/usr/include/x86_64-linux-gnu/bits/stdint-uintn.h, line 26:	N132 -{typedef __uint32_t uint32_t;}-> N133
/usr/include/x86_64-linux-gnu/bits/stdint-uintn.h, line 27:	N133 -{typedef __uint64_t uint64_t;}-> N134
/usr/include/stdint.h, line 43:	N134 -{typedef __int_least8_t int_least8_t;}-> N135
/usr/include/stdint.h, line 44:	N135 -{typedef __int_least16_t int_least16_t;}-> N136
/usr/include/stdint.h, line 45:	N136 -{typedef __int_least32_t int_least32_t;}-> N137
/usr/include/stdint.h, line 46:	N137 -{typedef __int_least64_t int_least64_t;}-> N138
/usr/include/stdint.h, line 49:	N138 -{typedef __uint_least8_t uint_least8_t;}-> N139
/usr/include/stdint.h, line 50:	N139 -{typedef __uint_least16_t uint_least16_t;}-> N140
/usr/include/stdint.h, line 51:	N140 -{typedef __uint_least32_t uint_least32_t;}-> N141
/usr/include/stdint.h, line 52:	N141 -{typedef __uint_least64_t uint_least64_t;}-> N142
/usr/include/stdint.h, line 58:	N142 -{typedef signed char int_fast8_t;}-> N143
/usr/include/stdint.h, line 60:	N143 -{typedef long int int_fast16_t;}-> N144
/usr/include/stdint.h, line 61:	N144 -{typedef long int int_fast32_t;}-> N145
/usr/include/stdint.h, line 62:	N145 -{typedef long int int_fast64_t;}-> N146
/usr/include/stdint.h, line 71:	N146 -{typedef unsigned char uint_fast8_t;}-> N147
/usr/include/stdint.h, line 73:	N147 -{typedef unsigned long int uint_fast16_t;}-> N148
/usr/include/stdint.h, line 74:	N148 -{typedef unsigned long int uint_fast32_t;}-> N149
/usr/include/stdint.h, line 75:	N149 -{typedef unsigned long int uint_fast64_t;}-> N150
/usr/include/stdint.h, line 87:	N150 -{typedef long int intptr_t;}-> N151
/usr/include/stdint.h, line 90:	N151 -{typedef unsigned long int uintptr_t;}-> N152
/usr/include/stdint.h, line 101:	N152 -{typedef __intmax_t intmax_t;}-> N153
/usr/include/stdint.h, line 102:	N153 -{typedef __uintmax_t uintmax_t;}-> N154
/usr/lib/gcc/x86_64-linux-gnu/11/include/stddef.h, line 209:	N154 -{typedef unsigned long int size_t;}-> N155
/usr/lib/gcc/x86_64-linux-gnu/11/include/stddef.h, line 321:	N155 -{typedef int wchar_t;}-> N156
/usr/include/stdlib.h, lines 59-63:	N156 -{struct __anon_type_div_t {   int quot;   int rem; } ;}-> N157
/usr/include/stdlib.h, lines 59-63:	N157 -{typedef struct __anon_type_div_t div_t;}-> N158
/usr/include/stdlib.h, lines 67-71:	N158 -{struct __anon_type_ldiv_t {   long int quot;   long int rem; } ;}-> N159
/usr/include/stdlib.h, lines 67-71:	N159 -{typedef struct __anon_type_ldiv_t ldiv_t;}-> N160
/usr/include/stdlib.h, lines 77-81:	N160 -{struct __anon_type_lldiv_t {   long long int quot;   long long int rem; } ;}-> N161
/usr/include/stdlib.h, lines 77-81:	N161 -{typedef struct __anon_type_lldiv_t lldiv_t;}-> N162
/usr/include/stdlib.h, line 98:	N162 -{size_t __ctype_get_mb_cur_max();}-> N163
/usr/include/stdlib.h, lines 102-103:	N163 -{double atof(const char *__nptr);}-> N164
/usr/include/stdlib.h, lines 105-106:	N164 -{int atoi(const char *__nptr);}-> N165
/usr/include/stdlib.h, lines 108-109:	N165 -{long int atol(const char *__nptr);}-> N166
/usr/include/stdlib.h, lines 113-114:	N166 -{long long int atoll(const char *__nptr);}-> N167
/usr/include/stdlib.h, lines 118-120:	N167 -{double strtod(const char *__nptr, char **__endptr);}-> N168
/usr/include/stdlib.h, lines 124-125:	N168 -{float strtof(const char *__nptr, char **__endptr);}-> N169
/usr/include/stdlib.h, lines 127-129:	N169 -{long double strtold(const char *__nptr, char **__endptr);}-> N170
/usr/include/stdlib.h, lines 177-179:	N170 -{long int strtol(const char *__nptr, char **__endptr, int __base);}-> N171
/usr/include/stdlib.h, lines 181-183:	N171 -{unsigned long int strtoul(const char *__nptr, char **__endptr, int __base);}-> N172
/usr/include/stdlib.h, lines 188-190:	N172 -{long long int strtoq(const char *__nptr, char **__endptr, int __base);}-> N173
/usr/include/stdlib.h, lines 193-195:	N173 -{unsigned long long int strtouq(const char *__nptr, char **__endptr, int __base);}-> N174
/usr/include/stdlib.h, lines 201-203:	N174 -{long long int strtoll(const char *__nptr, char **__endptr, int __base);}-> N175
/usr/include/stdlib.h, lines 206-208:	N175 -{unsigned long long int strtoull(const char *__nptr, char **__endptr, int __base);}-> N176
/usr/include/stdlib.h, line 386:	N176 -{char *l64a(long int __n);}-> N177
/usr/include/stdlib.h, lines 389-390:	N177 -{long int a64l(const char *__s);}-> N178
/usr/include/x86_64-linux-gnu/sys/types.h, line 33:	N178 -{typedef __u_char u_char;}-> N179
/usr/include/x86_64-linux-gnu/sys/types.h, line 34:	N179 -{typedef __u_short u_short;}-> N180
/usr/include/x86_64-linux-gnu/sys/types.h, line 35:	N180 -{typedef __u_int u_int;}-> N181
/usr/include/x86_64-linux-gnu/sys/types.h, line 36:	N181 -{typedef __u_long u_long;}-> N182
/usr/include/x86_64-linux-gnu/sys/types.h, line 37:	N182 -{typedef __quad_t quad_t;}-> N183
/usr/include/x86_64-linux-gnu/sys/types.h, line 38:	N183 -{typedef __u_quad_t u_quad_t;}-> N184
/usr/include/x86_64-linux-gnu/sys/types.h, line 39:	N184 -{typedef __fsid_t fsid_t;}-> N185
/usr/include/x86_64-linux-gnu/sys/types.h, line 42:	N185 -{typedef __loff_t loff_t;}-> N186
/usr/include/x86_64-linux-gnu/sys/types.h, line 47:	N186 -{typedef __ino_t ino_t;}-> N187
/usr/include/x86_64-linux-gnu/sys/types.h, line 59:	N187 -{typedef __dev_t dev_t;}-> N188
/usr/include/x86_64-linux-gnu/sys/types.h, line 64:	N188 -{typedef __gid_t gid_t;}-> N189
/usr/include/x86_64-linux-gnu/sys/types.h, line 69:	N189 -{typedef __mode_t mode_t;}-> N190
/usr/include/x86_64-linux-gnu/sys/types.h, line 74:	N190 -{typedef __nlink_t nlink_t;}-> N191
/usr/include/x86_64-linux-gnu/sys/types.h, line 79:	N191 -{typedef __uid_t uid_t;}-> N192
/usr/include/x86_64-linux-gnu/sys/types.h, line 85:	N192 -{typedef __off_t off_t;}-> N193
/usr/include/x86_64-linux-gnu/sys/types.h, line 97:	N193 -{typedef __pid_t pid_t;}-> N194
/usr/include/x86_64-linux-gnu/sys/types.h, line 103:	N194 -{typedef __id_t id_t;}-> N195
/usr/include/x86_64-linux-gnu/sys/types.h, line 108:	N195 -{typedef __ssize_t ssize_t;}-> N196
/usr/include/x86_64-linux-gnu/sys/types.h, line 114:	N196 -{typedef __daddr_t daddr_t;}-> N197
/usr/include/x86_64-linux-gnu/sys/types.h, line 115:	N197 -{typedef __caddr_t caddr_t;}-> N198
/usr/include/x86_64-linux-gnu/sys/types.h, line 121:	N198 -{typedef __key_t key_t;}-> N199
/usr/include/x86_64-linux-gnu/bits/types/clock_t.h, line 7:	N199 -{typedef __clock_t clock_t;}-> N200
/usr/include/x86_64-linux-gnu/bits/types/clockid_t.h, line 7:	N200 -{typedef __clockid_t clockid_t;}-> N201
/usr/include/x86_64-linux-gnu/bits/types/time_t.h, line 10:	N201 -{typedef __time_t time_t;}-> N202
/usr/include/x86_64-linux-gnu/bits/types/timer_t.h, line 7:	N202 -{typedef __timer_t timer_t;}-> N203
/usr/include/x86_64-linux-gnu/sys/types.h, line 148:	N203 -{typedef unsigned long int ulong;}-> N204
/usr/include/x86_64-linux-gnu/sys/types.h, line 149:	N204 -{typedef unsigned short int ushort;}-> N205
/usr/include/x86_64-linux-gnu/sys/types.h, line 150:	N205 -{typedef unsigned int uint;}-> N206
/usr/include/x86_64-linux-gnu/sys/types.h, line 158:	N206 -{typedef __uint8_t u_int8_t;}-> N207
/usr/include/x86_64-linux-gnu/sys/types.h, line 159:	N207 -{typedef __uint16_t u_int16_t;}-> N208
/usr/include/x86_64-linux-gnu/sys/types.h, line 160:	N208 -{typedef __uint32_t u_int32_t;}-> N209
/usr/include/x86_64-linux-gnu/sys/types.h, line 161:	N209 -{typedef __uint64_t u_int64_t;}-> N210
/usr/include/x86_64-linux-gnu/sys/types.h, line 164:	N210 -{typedef signed int register_t;}-> N211
/usr/include/x86_64-linux-gnu/bits/byteswap.h, lines 33-41:	N211 -{__uint16_t __bswap_16(__uint16_t __bsx);}-> N212
/usr/include/x86_64-linux-gnu/bits/byteswap.h, lines 48-56:	N212 -{__uint32_t __bswap_32(__uint32_t __bsx);}-> N213
/usr/include/x86_64-linux-gnu/bits/byteswap.h, lines 69-77:	N213 -{__uint64_t __bswap_64(__uint64_t __bsx);}-> N214
/usr/include/x86_64-linux-gnu/bits/uintn-identity.h, lines 32-36:	N214 -{__uint16_t __uint16_identity(__uint16_t __x);}-> N215
/usr/include/x86_64-linux-gnu/bits/uintn-identity.h, lines 38-42:	N215 -{__uint32_t __uint32_identity(__uint32_t __x);}-> N216
/usr/include/x86_64-linux-gnu/bits/uintn-identity.h, lines 44-48:	N216 -{__uint64_t __uint64_identity(__uint64_t __x);}-> N217
/usr/include/x86_64-linux-gnu/bits/types/__sigset_t.h, lines 5-8:	N217 -{struct __anon_type___sigset_t {   unsigned long int __val[32UL]; } ;}-> N218
/usr/include/x86_64-linux-gnu/bits/types/__sigset_t.h, lines 5-8:	N218 -{typedef struct __anon_type___sigset_t __sigset_t;}-> N219
/usr/include/x86_64-linux-gnu/bits/types/sigset_t.h, line 7:	N219 -{typedef __sigset_t sigset_t;}-> N220
/usr/include/x86_64-linux-gnu/bits/types/struct_timeval.h, lines 8-17:	N220 -{struct timeval {   __time_t tv_sec;   __suseconds_t tv_usec; } ;}-> N221
/usr/include/x86_64-linux-gnu/bits/types/struct_timespec.h, lines 11-31:	N221 -{struct timespec {   __time_t tv_sec;   __syscall_slong_t tv_nsec; } ;}-> N222
/usr/include/x86_64-linux-gnu/sys/select.h, line 43:	N222 -{typedef __suseconds_t suseconds_t;}-> N223
/usr/include/x86_64-linux-gnu/sys/select.h, line 49:	N223 -{typedef long int __fd_mask;}-> N224
/usr/include/x86_64-linux-gnu/sys/select.h, lines 59-70:	N224 -{struct __anon_type_fd_set {   __fd_mask __fds_bits[32]; } ;}-> N225
/usr/include/x86_64-linux-gnu/sys/select.h, lines 59-70:	N225 -{typedef struct __anon_type_fd_set fd_set;}-> N226
/usr/include/x86_64-linux-gnu/sys/select.h, line 77:	N226 -{typedef __fd_mask fd_mask;}-> N227
/usr/include/x86_64-linux-gnu/sys/select.h, lines 102-105:	N227 -{int select(int __nfds, fd_set *__readfds, fd_set *__writefds, fd_set *__exceptfds, struct timeval *__timeout);}-> N228
/usr/include/x86_64-linux-gnu/sys/select.h, lines 127-131:	N228 -{int pselect(int __nfds, fd_set *__readfds, fd_set *__writefds, fd_set *__exceptfds, const struct timespec *__timeout, const __sigset_t *__sigmask);}-> N229
/usr/include/x86_64-linux-gnu/sys/types.h, line 185:	N229 -{typedef __blksize_t blksize_t;}-> N230
/usr/include/x86_64-linux-gnu/sys/types.h, line 192:	N230 -{typedef __blkcnt_t blkcnt_t;}-> N231
/usr/include/x86_64-linux-gnu/sys/types.h, line 196:	N231 -{typedef __fsblkcnt_t fsblkcnt_t;}-> N232
/usr/include/x86_64-linux-gnu/sys/types.h, line 200:	N232 -{typedef __fsfilcnt_t fsfilcnt_t;}-> N233
/usr/include/x86_64-linux-gnu/bits/atomic_wide_counter.h, lines 28-32:	N233 -{struct __anon_type_0 {   unsigned int __low;   unsigned int __high; } ;}-> N234
/usr/include/x86_64-linux-gnu/bits/atomic_wide_counter.h, lines 25-33:	N234 -{union __anon_type___atomic_wide_counter {   unsigned long long int __value64;   struct __anon_type_0 __value32; } ;}-> N235
/usr/include/x86_64-linux-gnu/bits/atomic_wide_counter.h, lines 25-33:	N235 -{typedef union __anon_type___atomic_wide_counter __atomic_wide_counter;}-> N236
/usr/include/x86_64-linux-gnu/bits/thread-shared-types.h, lines 51-55:	N236 -{struct __pthread_internal_list {   struct __pthread_internal_list *__prev;   struct __pthread_internal_list *__next; } ;}-> N237
/usr/include/x86_64-linux-gnu/bits/thread-shared-types.h, lines 51-55:	N237 -{typedef struct __pthread_internal_list __pthread_list_t;}-> N238
/usr/include/x86_64-linux-gnu/bits/thread-shared-types.h, lines 57-60:	N238 -{struct __pthread_internal_slist {   struct __pthread_internal_slist *__next; } ;}-> N239
/usr/include/x86_64-linux-gnu/bits/thread-shared-types.h, lines 57-60:	N239 -{typedef struct __pthread_internal_slist __pthread_slist_t;}-> N240
/usr/include/x86_64-linux-gnu/bits/struct_mutex.h, lines 22-53:	N240 -{struct __pthread_mutex_s {   int __lock;   unsigned int __count;   int __owner;   unsigned int __nusers;   int __kind;   short __spins;   short __elision;   __pthread_list_t __list; } ;}-> N241
/usr/include/x86_64-linux-gnu/bits/struct_rwlock.h, lines 23-55:	N241 -{struct __pthread_rwlock_arch_t {   unsigned int __readers;   unsigned int __writers;   unsigned int __wrphase_futex;   unsigned int __writers_futex;   unsigned int __pad3;   unsigned int __pad4;   int __cur_writer;   int __shared;   signed char __rwelision;   unsigned char __pad1[7];   unsigned long int __pad2;   unsigned int __flags; } ;}-> N242
/usr/include/x86_64-linux-gnu/bits/thread-shared-types.h, lines 94-103:	N242 -{struct __pthread_cond_s {   __atomic_wide_counter __wseq;   __atomic_wide_counter __g1_start;   unsigned int __g_refs[2];   unsigned int __g_size[2];   unsigned int __g1_orig_size;   unsigned int __wrefs;   unsigned int __g_signals[2]; } ;}-> N243
/usr/include/x86_64-linux-gnu/bits/thread-shared-types.h, line 105:	N243 -{typedef unsigned int __tss_t;}-> N244
/usr/include/x86_64-linux-gnu/bits/thread-shared-types.h, line 106:	N244 -{typedef unsigned long int __thrd_t;}-> N245
/usr/include/x86_64-linux-gnu/bits/thread-shared-types.h, lines 108-111:	N245 -{struct __anon_type___once_flag {   int __data; } ;}-> N246
/usr/include/x86_64-linux-gnu/bits/thread-shared-types.h, lines 108-111:	N246 -{typedef struct __anon_type___once_flag __once_flag;}-> N247
/usr/include/x86_64-linux-gnu/bits/pthreadtypes.h, line 27:	N247 -{typedef unsigned long int pthread_t;}-> N248
/usr/include/x86_64-linux-gnu/bits/pthreadtypes.h, lines 32-36:	N248 -{union __anon_type_pthread_mutexattr_t {   char __size[4];   int __align; } ;}-> N249
/usr/include/x86_64-linux-gnu/bits/pthreadtypes.h, lines 32-36:	N249 -{typedef union __anon_type_pthread_mutexattr_t pthread_mutexattr_t;}-> N250
/usr/include/x86_64-linux-gnu/bits/pthreadtypes.h, lines 41-45:	N250 -{union __anon_type_pthread_condattr_t {   char __size[4];   int __align; } ;}-> N251
/usr/include/x86_64-linux-gnu/bits/pthreadtypes.h, lines 41-45:	N251 -{typedef union __anon_type_pthread_mutexattr_t pthread_condattr_t;}-> N252
/usr/include/x86_64-linux-gnu/bits/pthreadtypes.h, line 49:	N252 -{typedef unsigned int pthread_key_t;}-> N253
/usr/include/x86_64-linux-gnu/bits/pthreadtypes.h, line 53:	N253 -{typedef int pthread_once_t;}-> N254
/usr/include/x86_64-linux-gnu/bits/pthreadtypes.h, lines 56-60:	N254 -{union pthread_attr_t {   char __size[56];   long int __align; } ;}-> N255
/usr/include/x86_64-linux-gnu/bits/pthreadtypes.h, line 62:	N255 -{typedef union pthread_attr_t pthread_attr_t;}-> N256
/usr/include/x86_64-linux-gnu/bits/pthreadtypes.h, lines 67-72:	N256 -{union __anon_type_pthread_mutex_t {   struct __pthread_mutex_s __data;   char __size[40];   long int __align; } ;}-> N257
/usr/include/x86_64-linux-gnu/bits/pthreadtypes.h, lines 67-72:	N257 -{typedef union __anon_type_pthread_mutex_t pthread_mutex_t;}-> N258
/usr/include/x86_64-linux-gnu/bits/pthreadtypes.h, lines 75-80:	N258 -{union __anon_type_pthread_cond_t {   struct __pthread_cond_s __data;   char __size[48];   long long int __align; } ;}-> N259
/usr/include/x86_64-linux-gnu/bits/pthreadtypes.h, lines 75-80:	N259 -{typedef union __anon_type_pthread_cond_t pthread_cond_t;}-> N260
/usr/include/x86_64-linux-gnu/bits/pthreadtypes.h, lines 86-91:	N260 -{union __anon_type_pthread_rwlock_t {   struct __pthread_rwlock_arch_t __data;   char __size[56];   long int __align; } ;}-> N261
/usr/include/x86_64-linux-gnu/bits/pthreadtypes.h, lines 86-91:	N261 -{typedef union __anon_type_pthread_rwlock_t pthread_rwlock_t;}-> N262
/usr/include/x86_64-linux-gnu/bits/pthreadtypes.h, lines 93-97:	N262 -{union __anon_type_pthread_rwlockattr_t {   char __size[8];   long int __align; } ;}-> N263
/usr/include/x86_64-linux-gnu/bits/pthreadtypes.h, lines 93-97:	N263 -{typedef union __anon_type_pthread_rwlockattr_t pthread_rwlockattr_t;}-> N264
/usr/include/x86_64-linux-gnu/bits/pthreadtypes.h, line 103:	N264 -{typedef volatile int pthread_spinlock_t;}-> N265
/usr/include/x86_64-linux-gnu/bits/pthreadtypes.h, lines 108-112:	N265 -{union __anon_type_pthread_barrier_t {   char __size[32];   long int __align; } ;}-> N266
/usr/include/x86_64-linux-gnu/bits/pthreadtypes.h, lines 108-112:	N266 -{typedef union __anon_type_pthread_barrier_t pthread_barrier_t;}-> N267
/usr/include/x86_64-linux-gnu/bits/pthreadtypes.h, lines 114-118:	N267 -{union __anon_type_pthread_barrierattr_t {   char __size[4];   int __align; } ;}-> N268
/usr/include/x86_64-linux-gnu/bits/pthreadtypes.h, lines 114-118:	N268 -{typedef union __anon_type_pthread_mutexattr_t pthread_barrierattr_t;}-> N269
/usr/include/stdlib.h, line 402:	N269 -{long int random();}-> N270
/usr/include/stdlib.h, line 405:	N270 -{void srandom(unsigned int __seed);}-> N271
/usr/include/stdlib.h, lines 411-412:	N271 -{char *initstate(unsigned int __seed, char *__statebuf, size_t __statelen);}-> N272
/usr/include/stdlib.h, line 416:	N272 -{char *setstate(char *__statebuf);}-> N273
/usr/include/stdlib.h, lines 424-433:	N273 -{struct random_data {   int32_t *fptr;   int32_t *rptr;   int32_t *state;   int rand_type;   int rand_deg;   int rand_sep;   int32_t *end_ptr; } ;}-> N274
/usr/include/stdlib.h, lines 435-436:	N274 -{int random_r(struct random_data *__buf, int32_t *__result);}-> N275
/usr/include/stdlib.h, lines 438-439:	N275 -{int srandom_r(unsigned int __seed, struct random_data *__buf);}-> N276
/usr/include/stdlib.h, lines 441-444:	N276 -{int initstate_r(unsigned int __seed, char *__statebuf, size_t __statelen, struct random_data *__buf);}-> N277
/usr/include/stdlib.h, lines 446-448:	N277 -{int setstate_r(char *__statebuf, struct random_data *__buf);}-> N278
/usr/include/stdlib.h, line 454:	N278 -{int rand();}-> N279
/usr/include/stdlib.h, line 456:	N279 -{void srand(unsigned int __seed);}-> N280
/usr/include/stdlib.h, line 460:	N280 -{int rand_r(unsigned int *__seed);}-> N281
/usr/include/stdlib.h, line 468:	N281 -{double drand48();}-> N282
/usr/include/stdlib.h, line 469:	N282 -{double erand48(unsigned short int __xsubi[3]);}-> N283
/usr/include/stdlib.h, line 472:	N283 -{long int lrand48();}-> N284
/usr/include/stdlib.h, lines 473-474:	N284 -{long int nrand48(unsigned short int __xsubi[3]);}-> N285
/usr/include/stdlib.h, line 477:	N285 -{long int mrand48();}-> N286
/usr/include/stdlib.h, lines 478-479:	N286 -{long int jrand48(unsigned short int __xsubi[3]);}-> N287
/usr/include/stdlib.h, line 482:	N287 -{void srand48(long int __seedval);}-> N288
/usr/include/stdlib.h, lines 483-484:	N288 -{unsigned short int *seed48(unsigned short int __seed16v[3]);}-> N289
/usr/include/stdlib.h, line 485:	N289 -{void lcong48(unsigned short int __param[7]);}-> N290
/usr/include/stdlib.h, lines 491-499:	N290 -{struct drand48_data {   unsigned short int __x[3];   unsigned short int __old_x[3];   unsigned short int __c;   unsigned short int __init;   unsigned long long int __a; } ;}-> N291
/usr/include/stdlib.h, lines 502-503:	N291 -{int drand48_r(struct drand48_data *__buffer, double *__result);}-> N292
/usr/include/stdlib.h, lines 504-506:	N292 -{int erand48_r(unsigned short int __xsubi[3], struct drand48_data *__buffer, double *__result);}-> N293
/usr/include/stdlib.h, lines 509-511:	N293 -{int lrand48_r(struct drand48_data *__buffer, long int *__result);}-> N294
/usr/include/stdlib.h, lines 512-515:	N294 -{int nrand48_r(unsigned short int __xsubi[3], struct drand48_data *__buffer, long int *__result);}-> N295
/usr/include/stdlib.h, lines 518-520:	N295 -{int mrand48_r(struct drand48_data *__buffer, long int *__result);}-> N296
/usr/include/stdlib.h, lines 521-524:	N296 -{int jrand48_r(unsigned short int __xsubi[3], struct drand48_data *__buffer, long int *__result);}-> N297
/usr/include/stdlib.h, lines 527-528:	N297 -{int srand48_r(long int __seedval, struct drand48_data *__buffer);}-> N298
/usr/include/stdlib.h, lines 530-531:	N298 -{int seed48_r(unsigned short int __seed16v[3], struct drand48_data *__buffer);}-> N299
/usr/include/stdlib.h, lines 533-535:	N299 -{int lcong48_r(unsigned short int __param[7], struct drand48_data *__buffer);}-> N300
/usr/include/stdlib.h, lines 540-541:	N300 -{void *malloc(size_t __size);}-> N301
/usr/include/stdlib.h, lines 543-544:	N301 -{void *calloc(size_t __nmemb, size_t __size);}-> N302
/usr/include/stdlib.h, lines 551-552:	N302 -{void *realloc(void *__ptr, size_t __size);}-> N303
/usr/include/stdlib.h, line 555:	N303 -{void free(void *__ptr);}-> N304
/usr/include/stdlib.h, lines 563-566:	N304 -{void *reallocarray(void *__ptr, size_t __nmemb, size_t __size);}-> N305
/usr/include/alloca.h, line 32:	N305 -{void *alloca(size_t __size);}-> N306
/usr/include/stdlib.h, lines 580-581:	N306 -{void *valloc(size_t __size);}-> N307
/usr/include/stdlib.h, lines 586-587:	N307 -{int posix_memalign(void **__memptr, size_t __alignment, size_t __size);}-> N308
/usr/include/stdlib.h, lines 592-594:	N308 -{void *aligned_alloc(size_t __alignment, size_t __size);}-> N309
/usr/include/stdlib.h, line 598:	N309 -{void abort();}-> N310
/usr/include/stdlib.h, line 602:	N310 -{int atexit(void (*__func)());}-> N311
/usr/include/stdlib.h, line 610:	N311 -{int at_quick_exit(void (*__func)());}-> N312
/usr/include/stdlib.h, lines 617-618:	N312 -{int on_exit(void (*__func)(int __status, void *__arg), void *__arg);}-> N313
/usr/include/stdlib.h, line 624:	N313 -{void exit(int __status);}-> N314
/usr/include/stdlib.h, line 630:	N314 -{void quick_exit(int __status);}-> N315
/usr/include/stdlib.h, line 636:	N315 -{void _Exit(int __status);}-> N316
/usr/include/stdlib.h, line 641:	N316 -{char *getenv(const char *__name);}-> N317
/usr/include/stdlib.h, line 654:	N317 -{int putenv(char *__string);}-> N318
/usr/include/stdlib.h, lines 660-661:	N318 -{int setenv(const char *__name, const char *__value, int __replace);}-> N319
/usr/include/stdlib.h, line 664:	N319 -{int unsetenv(const char *__name);}-> N320
/usr/include/stdlib.h, line 671:	N320 -{int clearenv();}-> N321
/usr/include/stdlib.h, line 682:	N321 -{char *mktemp(char *__template);}-> N322
/usr/include/stdlib.h, line 695:	N322 -{int mkstemp(char *__template);}-> N323
/usr/include/stdlib.h, line 717:	N323 -{int mkstemps(char *__template, int __suffixlen);}-> N324
/usr/include/stdlib.h, line 738:	N324 -{char *mkdtemp(char *__template);}-> N325
/usr/include/stdlib.h, line 791:	N325 -{int system(const char *__command);}-> N326
/usr/include/stdlib.h, lines 808-809:	N326 -{char *realpath(const char *__name, char *__resolved);}-> N327
/usr/include/stdlib.h, line 816:	N327 -{typedef int (*__compar_fn_t)(const void *, const void *);}-> N328
/usr/include/stdlib.h, lines 828-830:	N328 -{void *bsearch(const void *__key, const void *__base, size_t __nmemb, size_t __size, __compar_fn_t __compar);}-> N329
/usr/include/stdlib.h, lines 838-839:	N329 -{void qsort(void *__base, size_t __nmemb, size_t __size, __compar_fn_t __compar);}-> N330
/usr/include/stdlib.h, line 848:	N330 -{int abs(int __x);}-> N331
/usr/include/stdlib.h, line 849:	N331 -{long int labs(long int __x);}-> N332
/usr/include/stdlib.h, lines 852-853:	N332 -{long long int llabs(long long int __x);}-> N333
/usr/include/stdlib.h, lines 860-861:	N333 -{div_t div(int __numer, int __denom);}-> N334
/usr/include/stdlib.h, lines 862-863:	N334 -{ldiv_t ldiv(long int __numer, long int __denom);}-> N335
/usr/include/stdlib.h, lines 866-868:	N335 -{lldiv_t lldiv(long long int __numer, long long int __denom);}-> N336
/usr/include/stdlib.h, lines 880-881:	N336 -{char *ecvt(double __value, int __ndigit, int *__decpt, int *__sign);}-> N337
/usr/include/stdlib.h, lines 886-887:	N337 -{char *fcvt(double __value, int __ndigit, int *__decpt, int *__sign);}-> N338
/usr/include/stdlib.h, lines 892-893:	N338 -{char *gcvt(double __value, int __ndigit, char *__buf);}-> N339
/usr/include/stdlib.h, lines 898-900:	N339 -{char *qecvt(long double __value, int __ndigit, int *__decpt, int *__sign);}-> N340
/usr/include/stdlib.h, lines 901-903:	N340 -{char *qfcvt(long double __value, int __ndigit, int *__decpt, int *__sign);}-> N341
/usr/include/stdlib.h, lines 904-905:	N341 -{char *qgcvt(long double __value, int __ndigit, char *__buf);}-> N342
/usr/include/stdlib.h, lines 910-912:	N342 -{int ecvt_r(double __value, int __ndigit, int *__decpt, int *__sign, char *__buf, size_t __len);}-> N343
/usr/include/stdlib.h, lines 913-915:	N343 -{int fcvt_r(double __value, int __ndigit, int *__decpt, int *__sign, char *__buf, size_t __len);}-> N344
/usr/include/stdlib.h, lines 917-920:	N344 -{int qecvt_r(long double __value, int __ndigit, int *__decpt, int *__sign, char *__buf, size_t __len);}-> N345
/usr/include/stdlib.h, lines 921-924:	N345 -{int qfcvt_r(long double __value, int __ndigit, int *__decpt, int *__sign, char *__buf, size_t __len);}-> N346
/usr/include/stdlib.h, line 930:	N346 -{int mblen(const char *__s, size_t __n);}-> N347
/usr/include/stdlib.h, lines 933-934:	N347 -{int mbtowc(wchar_t *__pwc, const char *__s, size_t __n);}-> N348
/usr/include/stdlib.h, line 937:	N348 -{int wctomb(char *__s, wchar_t __wchar);}-> N349
/usr/include/stdlib.h, lines 941-943:	N349 -{size_t mbstowcs(wchar_t *__pwcs, const char *__s, size_t __n);}-> N350
/usr/include/stdlib.h, lines 945-949:	N350 -{size_t wcstombs(char *__s, const wchar_t *__pwcs, size_t __n);}-> N351
/usr/include/stdlib.h, line 956:	N351 -{int rpmatch(const char *__response);}-> N352
/usr/include/stdlib.h, lines 967-970:	N352 -{int getsubopt(char **__optionp, char * const *__tokens, char **__valuep);}-> N353
/usr/include/stdlib.h, lines 1013-1014:	N353 -{int getloadavg(double __loadavg[], int __nelem);}-> N354
lines 8-10:	N354 -{void assume(int cond);}-> N355
lines 12-25:	N355 -{int main();}-> N356
none:	N356 -{Function start dummy edge}-> N38
line 14:	N38 -{uint local_14;}-> N39
	local_14 == 268435455U;
line 15:	N39 -{uint x;}-> N40
line 17:	N40 -{for}-> N41
line 17:	N41 -{[!(local_14 < 268435455)]}-> N44
	local_14 == 268435455U;
	local_14 == 268435455U;
line 20:	N44 -{[local_14 < 268435456]}-> N46
	local_14 == 268435455U;
	local_14 == 268435455U;
line 21:	N46 -{int __CPAchecker_TMP_2;}-> N47
line 21:	N47 -{}-> N49
line 21:	N49 -{__CPAchecker_TMP_2 = 0;}-> N51
line 21:	N51 -{4UL;}-> N52
line 21:	N52 -{}-> N55
line 21:	N55 -{__assert_fail("0 && \"Assertion failed: x > 0x0fffffff\"", "/home/zyl/biVerify/CPA_DATA2/C/F/llmfix/realOutput/iterationTry/simple_2-2_process_dc_iter1.c", 21, "__PRETTY_FUNCTION__");}-> N358
